c uprop, v00.0, 
c reading from data/prog553.c.cnf
c done reading: 0.003484
p cnf 166 747
-73 -91 0
73 91 0
-67 91 0
67 -91 0
73 -85 0
-83 -85 0
-73 83 85 0
-73 -78 83 0
73 -78 -83 0
73 78 83 0
-73 78 -83 0
-74 85 0
-71 -74 0
71 74 -85 0
-69 71 -85 0
-69 -71 85 0
69 71 85 0
69 -71 -85 0
-68 74 0
-65 -68 0
65 68 -74 0
-63 65 -74 0
-63 -65 74 0
63 65 74 0
63 -65 -74 0
68 -89 0
-87 -89 0
-68 87 89 0
-68 87 -93 0
68 -87 -93 0
68 87 93 0
-68 -87 93 0
89 -94 0
-80 -94 0
80 -89 94 0
80 -89 -95 0
-80 89 -95 0
80 89 95 0
-80 -89 95 0
94 -96 0
-76 -96 0
76 -94 96 0
76 -94 -97 0
-76 94 -97 0
76 94 97 0
-76 -94 97 0
65 -98 0
-65 98 0
-87 -91 99 0
87 91 -99 0
87 -99 0
91 -99 0
87 -99 -100 0
91 -99 -100 0
-99 -100 0
-87 99 100 0
-91 99 100 0
87 91 -100 0
-80 -83 101 0
-80 -99 101 0
-83 -99 101 0
80 83 -101 0
80 99 -101 0
83 99 -101 0
80 -101 -102 0
83 -101 -102 0
99 -101 -102 0
-80 101 102 0
-83 101 102 0
-99 101 102 0
-80 -83 -99 102 0
80 83 99 -102 0
-71 -76 103 0
-76 -101 103 0
-71 -101 103 0
71 76 -103 0
76 101 -103 0
71 101 -103 0
76 -103 -104 0
71 -103 -104 0
101 -103 -104 0
-76 103 104 0
-71 103 104 0
-101 103 104 0
-71 -76 -101 104 0
71 76 101 -104 0
65 -105 0
103 -105 0
-65 -103 105 0
-62 -65 -103 0
-62 65 103 0
62 -65 103 0
62 65 -103 0
-61 87 0
-61 105 0
61 -87 -105 0
-60 -87 -105 0
-60 87 105 0
60 -87 105 0
60 87 -105 0
-59 80 0
-59 61 0
59 -61 -80 0
-58 -61 -80 0
-58 61 80 0
58 61 -80 0
58 -61 80 0
76 -90 0
59 -90 0
-59 -76 90 0
-59 -76 -82 0
59 76 -82 0
59 -76 82 0
-59 76 82 0
-70 -91 0
70 91 0
-64 91 0
64 -91 0
70 -86 0
-83 -86 0
-70 83 86 0
-70 -79 83 0
70 -79 -83 0
70 79 83 0
-70 79 -83 0
-75 86 0
-71 -75 0
71 75 -86 0
-57 71 -86 0
-57 -71 86 0
57 71 86 0
57 -71 -86 0
-56 75 0
-56 -98 0
56 -75 98 0
-55 -75 98 0
-55 75 -98 0
55 75 98 0
55 -75 -98 0
-54 56 0
-54 -100 0
54 -56 100 0
-53 -56 100 0
-53 56 -100 0
53 56 100 0
53 -56 -100 0
-52 54 0
-52 -102 0
52 -54 102 0
-51 -54 102 0
-51 54 -102 0
51 54 102 0
51 -54 -102 0
-50 52 0
-50 -104 0
50 -52 104 0
-49 -52 104 0
-49 52 -104 0
49 52 104 0
49 -52 -104 0
-48 50 0
-48 -62 0
48 -50 62 0
-47 -50 62 0
-47 50 -62 0
47 50 62 0
47 -50 -62 0
-46 48 0
-46 -60 0
46 -48 60 0
-45 -48 60 0
-45 48 -60 0
45 48 60 0
45 -48 -60 0
-44 46 0
-44 -58 0
44 -46 58 0
-43 -46 58 0
-43 46 -58 0
43 46 58 0
43 -46 -58 0
-42 44 0
-42 -82 0
42 -44 82 0
-41 -44 82 0
-41 44 -82 0
41 44 82 0
41 -44 -82 0
-40 42 0
-40 -90 0
40 -42 90 0
-42 90 -106 0
42 -90 -106 0
42 90 106 0
-42 -90 106 0
-107 -109 0
-109 -110 0
107 109 110 0
107 110 -112 0
-107 -110 -112 0
-107 110 112 0
107 -110 112 0
109 -113 0
-113 -114 0
-109 113 114 0
-109 114 -116 0
109 -114 -116 0
109 114 116 0
-109 -114 116 0
113 -117 0
-117 -118 0
-113 117 118 0
-113 118 -120 0
113 -118 -120 0
113 118 120 0
-113 -118 120 0
117 -121 0
-121 -122 0
-117 121 122 0
-117 122 -124 0
117 -122 -124 0
117 122 124 0
-117 -122 124 0
121 -125 0
-125 -126 0
-121 125 126 0
-121 126 -128 0
121 -126 -128 0
121 126 128 0
-121 -126 128 0
125 -129 0
-129 -130 0
-125 129 130 0
-125 130 -132 0
125 -130 -132 0
125 130 132 0
-125 -130 132 0
129 -133 0
-133 -134 0
-129 133 134 0
-129 134 -136 0
129 -134 -136 0
129 134 136 0
-129 -134 136 0
110 -137 0
107 -137 0
-107 -110 137 0
-107 -110 -138 0
107 110 -138 0
107 -110 138 0
-107 110 138 0
-110 -114 139 0
-114 -137 139 0
-110 -137 139 0
110 114 -139 0
114 137 -139 0
110 137 -139 0
114 -139 -140 0
110 -139 -140 0
137 -139 -140 0
-114 139 140 0
-110 139 140 0
-137 139 140 0
-110 -114 -137 140 0
110 114 137 -140 0
-114 -118 141 0
-118 -139 141 0
-114 -139 141 0
114 118 -141 0
118 139 -141 0
114 139 -141 0
118 -141 -142 0
114 -141 -142 0
139 -141 -142 0
-118 141 142 0
-114 141 142 0
-139 141 142 0
-114 -118 -139 142 0
114 118 139 -142 0
-118 -122 143 0
-122 -141 143 0
-118 -141 143 0
118 122 -143 0
122 141 -143 0
118 141 -143 0
122 -143 -144 0
118 -143 -144 0
141 -143 -144 0
-122 143 144 0
-118 143 144 0
-141 143 144 0
-118 -122 -141 144 0
118 122 141 -144 0
-122 -126 145 0
-126 -143 145 0
-122 -143 145 0
122 126 -145 0
126 143 -145 0
122 143 -145 0
126 -145 -146 0
122 -145 -146 0
143 -145 -146 0
-126 145 146 0
-122 145 146 0
-143 145 146 0
-122 -126 -143 146 0
122 126 143 -146 0
-126 -130 147 0
-130 -145 147 0
-126 -145 147 0
126 130 -147 0
130 145 -147 0
126 145 -147 0
130 -147 -148 0
126 -147 -148 0
145 -147 -148 0
-130 147 148 0
-126 147 148 0
-145 147 148 0
-126 -130 -145 148 0
126 130 145 -148 0
-130 -134 149 0
-134 -147 149 0
-130 -147 149 0
130 134 -149 0
134 147 -149 0
130 147 -149 0
134 -149 -150 0
130 -149 -150 0
147 -149 -150 0
-134 149 150 0
-130 149 150 0
-147 149 150 0
-130 -134 -147 150 0
130 134 147 -150 0
134 -151 0
149 -151 0
-134 -149 151 0
-134 -149 -152 0
134 149 -152 0
-134 149 152 0
134 -149 152 0
142 -153 0
107 -153 0
-107 -142 153 0
-107 -142 -154 0
107 142 -154 0
107 -142 154 0
-107 142 154 0
-110 -144 155 0
-144 -153 155 0
-110 -153 155 0
110 144 -155 0
144 153 -155 0
110 153 -155 0
144 -155 -156 0
110 -155 -156 0
153 -155 -156 0
-144 155 156 0
-110 155 156 0
-153 155 156 0
-110 -144 -153 156 0
110 144 153 -156 0
-114 -146 157 0
-146 -155 157 0
-114 -155 157 0
114 146 -157 0
146 155 -157 0
114 155 -157 0
146 -157 -158 0
114 -157 -158 0
155 -157 -158 0
-146 157 158 0
-114 157 158 0
-155 157 158 0
-114 -146 -155 158 0
114 146 155 -158 0
-118 -148 159 0
-148 -157 159 0
-118 -157 159 0
118 148 -159 0
148 157 -159 0
118 157 -159 0
148 -159 -160 0
118 -159 -160 0
157 -159 -160 0
-148 159 160 0
-118 159 160 0
-157 159 160 0
-118 -148 -157 160 0
118 148 157 -160 0
-122 -150 161 0
-150 -159 161 0
-122 -159 161 0
122 150 -161 0
150 159 -161 0
122 159 -161 0
150 -161 -162 0
122 -161 -162 0
159 -161 -162 0
-150 161 162 0
-122 161 162 0
-159 161 162 0
-122 -150 -159 162 0
122 150 159 -162 0
-126 -152 163 0
-152 -161 163 0
-126 -161 163 0
126 152 -163 0
152 161 -163 0
126 161 -163 0
152 -163 -164 0
126 -163 -164 0
161 -163 -164 0
-152 163 164 0
-126 163 164 0
-161 163 164 0
-126 -152 -161 164 0
126 152 161 -164 0
92 -130 -151 0
92 -151 -163 0
92 -130 -163 0
-92 130 151 0
-92 151 163 0
-92 130 163 0
-84 -92 151 0
-84 -92 130 0
-84 -92 163 0
84 92 -151 0
84 92 -130 0
84 92 -163 0
84 -130 -151 -163 0
-84 130 151 163 0
-72 134 0
-72 92 0
72 -92 -134 0
-66 -92 -134 0
-66 92 134 0
66 92 -134 0
66 -92 134 0
-88 156 0
-88 107 0
88 -107 -156 0
-81 -107 -156 0
-81 107 156 0
81 107 -156 0
81 -107 156 0
77 -110 -158 0
77 -88 -158 0
77 -88 -110 0
-77 110 158 0
-77 88 158 0
-77 88 110 0
-77 -108 158 0
-77 -108 110 0
-77 88 -108 0
77 108 -158 0
77 108 -110 0
77 -88 108 0
-88 108 -110 -158 0
88 -108 110 158 0
111 -114 -160 0
-77 111 -160 0
-77 111 -114 0
-111 114 160 0
77 -111 160 0
77 -111 114 0
-111 -115 160 0
-111 114 -115 0
77 -111 -115 0
111 115 -160 0
111 -114 115 0
-77 111 115 0
-77 -114 115 -160 0
77 114 -115 160 0
-118 119 -162 0
-111 119 -162 0
-111 -118 119 0
118 -119 162 0
111 -119 162 0
111 118 -119 0
-119 -123 162 0
118 -119 -123 0
111 -119 -123 0
119 123 -162 0
-118 119 123 0
-111 119 123 0
-111 -118 123 -162 0
111 118 -123 162 0
-122 127 -164 0
-119 127 -164 0
-119 -122 127 0
122 -127 164 0
119 -127 164 0
119 122 -127 0
-127 -131 164 0
122 -127 -131 0
119 -127 -131 0
127 131 -164 0
-122 127 131 0
-119 127 131 0
-119 -122 131 -164 0
119 122 -131 164 0
-84 -126 135 0
-84 -127 135 0
-126 -127 135 0
84 126 -135 0
84 127 -135 0
126 127 -135 0
84 -135 -165 0
126 -135 -165 0
127 -135 -165 0
-84 135 165 0
-126 135 165 0
-127 135 165 0
-84 -126 -127 165 0
84 126 127 -165 0
-66 -130 166 0
-66 -135 166 0
-130 -135 166 0
66 130 -166 0
66 135 -166 0
130 135 -166 0
-39 66 -166 0
-39 130 -166 0
-39 135 -166 0
39 -66 166 0
39 -130 166 0
39 -135 166 0
39 -66 -130 -135 0
-39 66 130 135 0
38 -72 -134 0
38 -72 -166 0
38 -134 -166 0
-38 72 134 0
-38 72 166 0
-38 134 166 0
-37 -38 72 0
-37 -38 134 0
-37 -38 166 0
37 38 -72 0
37 38 -134 0
37 38 -166 0
37 -72 -134 -166 0
-37 72 134 166 0
-36 -107 0
-36 -138 0
36 107 138 0
-35 107 138 0
-35 -107 -138 0
35 -107 138 0
35 107 -138 0
-34 36 0
-34 -140 0
34 -36 140 0
-33 -36 140 0
-33 36 -140 0
33 36 140 0
33 -36 -140 0
-32 34 0
-32 -154 0
32 -34 154 0
-31 -34 154 0
-31 34 -154 0
31 34 154 0
31 -34 -154 0
-30 32 0
-30 -81 0
30 -32 81 0
-29 -32 81 0
-29 32 -81 0
29 32 81 0
29 -32 -81 0
-28 30 0
-28 -108 0
28 -30 108 0
-27 -30 108 0
-27 30 -108 0
27 30 108 0
27 -30 -108 0
-26 28 0
-26 -115 0
26 -28 115 0
-25 -28 115 0
-25 28 -115 0
25 28 115 0
25 -28 -115 0
-24 26 0
-24 -123 0
24 -26 123 0
-23 -26 123 0
-23 26 -123 0
23 26 123 0
23 -26 -123 0
-22 24 0
-22 -131 0
22 -24 131 0
-21 -24 131 0
-21 24 -131 0
21 24 131 0
21 -24 -131 0
-20 22 0
-20 -165 0
20 -22 165 0
-19 -22 165 0
-19 22 -165 0
19 22 165 0
19 -22 -165 0
-18 20 0
-18 -39 0
18 -20 39 0
-17 -20 39 0
-17 20 -39 0
17 20 39 0
17 -20 -39 0
-16 18 0
-16 -37 0
16 -18 37 0
-15 -18 37 0
-15 18 -37 0
15 18 37 0
15 -18 -37 0
-14 16 0
-14 -38 0
14 -16 38 0
-13 -16 38 0
-13 16 -38 0
13 16 38 0
13 -16 -38 0
-12 91 0
-12 107 0
12 -91 -107 0
-91 -107 0
91 107 0
11 -83 -138 0
11 -12 -83 0
11 -12 -138 0
-11 83 138 0
-11 12 83 0
-11 12 138 0
-11 83 0
-11 138 0
-11 12 0
12 83 138 0
10 -71 -140 0
10 -11 -71 0
10 -11 -140 0
-10 71 140 0
-10 11 71 0
-10 11 140 0
-10 71 0
-10 140 0
-10 11 0
11 71 140 0
9 -98 -154 0
9 -10 -98 0
9 -10 -154 0
-9 98 154 0
-9 10 98 0
-9 10 154 0
9 -98 0
9 -154 0
9 -10 0
-10 -98 -154 0
8 -81 -100 0
8 -9 -100 0
8 -9 -81 0
-8 81 100 0
-8 9 100 0
-8 9 81 0
-8 100 0
-8 81 0
-8 9 0
9 81 100 0
7 -102 -108 0
7 -8 -102 0
7 -8 -108 0
-7 102 108 0
-7 8 102 0
-7 8 108 0
-7 102 0
-7 108 0
-7 8 0
8 102 108 0
6 -104 -115 0
6 -7 -104 0
6 -7 -115 0
-6 104 115 0
-6 7 104 0
-6 7 115 0
-6 104 0
-6 115 0
-6 7 0
7 104 115 0
5 -62 -123 0
5 -6 -62 0
5 -6 -123 0
-5 62 123 0
-5 6 62 0
-5 6 123 0
5 -62 0
5 -123 0
5 -6 0
-6 -62 -123 0
4 -60 -131 0
4 -5 -60 0
4 -5 -131 0
-4 60 131 0
-4 5 60 0
-4 5 131 0
4 -60 0
4 -131 0
4 -5 0
-5 -60 -131 0
3 -58 -165 0
3 -4 -58 0
3 -4 -165 0
-3 58 165 0
-3 4 58 0
-3 4 165 0
3 -58 0
3 -165 0
3 -4 0
-4 -58 -165 0
2 -39 -82 0
2 -3 -82 0
2 -3 -39 0
-2 39 82 0
-2 3 82 0
-2 3 39 0
2 -82 0
2 -39 0
2 -3 0
-3 -39 -82 0
1 -37 -90 0
1 -2 -90 0
1 -2 -37 0
-1 37 90 0
-1 2 90 0
-1 2 37 0
1 -90 0
1 -37 0
1 -2 0
-2 -37 -90 0
-1 -38 0
1 -38 0
-1 38 0
